c pcminimize - minimizing a CNF with respect to propagation completeness by iterative removing of absorbed clauses.
c Petr Kucera, 2016-2021
c Version 2.7, revision 59, git hash 4910a71, date 2024-07-16 20:17:42 +0200
p cnf 477 2845
-31 -344 0
32 -344 0
-33 -344 0
-34 -344 0
-39 -344 0
-40 -344 0
41 -344 0
-42 -344 0
-45 -344 0
-47 -344 0
-48 -344 0
49 -344 0
52 -344 0
-53 -344 0
-55 -344 0
-59 -344 0
-60 -344 0
61 -344 0
-63 -344 0
73 -344 0
-74 -344 0
-75 -344 0
-76 -344 0
-87 -344 0
-88 -344 0
-89 -344 0
90 -344 0
-93 -344 0
95 -344 0
-96 -344 0
-97 -344 0
-100 -344 0
103 -344 0
-107 -344 0
108 -344 0
-109 -344 0
-111 -344 0
120 -344 0
-123 -344 0
-124 -344 0
-125 -344 0
-126 -344 0
130 -344 0
-131 -344 0
-132 -344 0
-139 -344 0
-143 -344 0
144 -344 0
-147 -344 0
-151 -344 0
-153 -344 0
-154 -344 0
-157 -344 0
159 -344 0
-167 -344 0
-170 -344 0
171 -344 0
173 -344 0
-178 -344 0
-180 -344 0
-181 -344 0
184 -344 0
-185 -344 0
-200 -344 0
201 -344 0
-204 -344 0
-214 -344 0
-215 -344 0
218 -344 0
-219 -344 0
221 -344 0
-222 -344 0
-225 -344 0
-226 -344 0
229 -344 0
-232 -344 0
246 -344 0
-248 -344 0
-249 -344 0
-258 -344 0
-259 -344 0
260 -344 0
-263 -344 0
-264 -344 0
-266 -344 0
-267 -344 0
270 -344 0
271 -344 0
-272 -344 0
-274 -344 0
-277 -344 0
280 -344 0
-284 -344 0
-285 -344 0
286 -344 0
-287 -344 0
-288 -344 0
-303 -344 0
-304 -344 0
305 -344 0
-306 -344 0
-310 -344 0
-311 -344 0
-312 -344 0
313 -344 0
-315 -344 0
316 -344 0
-319 -344 0
-320 -344 0
322 -344 0
-327 -344 0
-329 -344 0
-331 -344 0
332 -344 0
-337 -344 0
338 -344 0
-339 -344 0
344 -345 0
146 -345 0
-51 -346 0
-58 -346 0
-77 -346 0
-122 -346 0
-156 -346 0
-160 -346 0
162 -346 0
-308 -346 0
345 -347 0
346 -347 0
347 -348 0
65 -348 0
-44 -349 0
-101 -349 0
-177 -349 0
-213 -349 0
-227 -349 0
-233 -349 0
-235 -349 0
-239 -349 0
-247 -349 0
-279 -349 0
-323 -349 0
348 -350 0
349 -350 0
350 -351 0
234 -351 0
31 -352 0
-32 -352 0
-33 -352 0
-34 -352 0
-39 -352 0
-40 -352 0
-41 -352 0
42 -352 0
-44 -352 0
-45 -352 0
47 -352 0
-48 -352 0
-49 -352 0
-51 -352 0
-52 -352 0
-53 -352 0
55 -352 0
-58 -352 0
-59 -352 0
60 -352 0
-61 -352 0
-63 -352 0
65 -352 0
-73 -352 0
74 -352 0
-75 -352 0
-76 -352 0
-77 -352 0
-87 -352 0
-88 -352 0
89 -352 0
-90 -352 0
-93 -352 0
-95 -352 0
-96 -352 0
97 -352 0
100 -352 0
-101 -352 0
-103 -352 0
-107 -352 0
-108 -352 0
109 -352 0
-111 -352 0
-120 -352 0
-122 -352 0
123 -352 0
-124 -352 0
-125 -352 0
126 -352 0
-130 -352 0
-131 -352 0
-132 -352 0
-139 -352 0
-143 -352 0
144 -352 0
-146 -352 0
147 -352 0
-151 -352 0
-153 -352 0
-154 -352 0
-156 -352 0
-157 -352 0
159 -352 0
-160 -352 0
162 -352 0
167 -352 0
-170 -352 0
-171 -352 0
-173 -352 0
-177 -352 0
178 -352 0
-180 -352 0
-181 -352 0
184 -352 0
-185 -352 0
200 -352 0
-201 -352 0
-204 -352 0
-213 -352 0
214 -352 0
-215 -352 0
-218 -352 0
-219 -352 0
-221 -352 0
-222 -352 0
225 -352 0
-226 -352 0
-227 -352 0
229 -352 0
-232 -352 0
233 -352 0
-235 -352 0
-239 -352 0
247 -352 0
-248 -352 0
-249 -352 0
-258 -352 0
-259 -352 0
-260 -352 0
263 -352 0
-264 -352 0
-266 -352 0
267 -352 0
-270 -352 0
-271 -352 0
272 -352 0
-274 -352 0
-277 -352 0
280 -352 0
-284 -352 0
285 -352 0
-286 -352 0
-287 -352 0
-288 -352 0
-303 -352 0
-304 -352 0
-305 -352 0
306 -352 0
-308 -352 0
-310 -352 0
-311 -352 0
312 -352 0
-313 -352 0
315 -352 0
-319 -352 0
-320 -352 0
323 -352 0
-327 -352 0
-329 -352 0
-331 -352 0
332 -352 0
-337 -352 0
338 -352 0
-339 -352 0
352 -353 0
-279 -353 0
-246 -354 0
-316 -354 0
-322 -354 0
353 -355 0
354 -355 0
355 -356 0
-234 -356 0
351 356 -357 0
357 -358 0
-56 -359 0
-66 -359 0
-104 -359 0
-140 -359 0
-152 -359 0
-172 -359 0
-175 -359 0
-179 -359 0
-193 -359 0
-194 -359 0
-195 -359 0
-198 -359 0
-206 -359 0
207 -359 0
-210 -359 0
-217 -359 0
-224 -359 0
-231 -359 0
-253 -359 0
255 -359 0
-291 -359 0
-326 -359 0
-330 -359 0
-340 -359 0
358 -360 0
359 -360 0
360 -361 0
199 -361 0
-31 -362 0
-32 -362 0
33 -362 0
-34 -362 0
-39 -362 0
-40 -362 0
-41 -362 0
42 -362 0
-44 -362 0
-45 -362 0
48 -362 0
-49 -362 0
51 -362 0
-52 -362 0
-53 -362 0
-55 -362 0
-56 -362 0
-58 -362 0
-59 -362 0
60 -362 0
-61 -362 0
-63 -362 0
-65 -362 0
66 -362 0
-73 -362 0
-74 -362 0
-75 -362 0
-76 -362 0
77 -362 0
-87 -362 0
-88 -362 0
89 -362 0
-90 -362 0
-93 -362 0
95 -362 0
-96 -362 0
-97 -362 0
-100 -362 0
101 -362 0
-103 -362 0
-104 -362 0
107 -362 0
-108 -362 0
-109 -362 0
-111 -362 0
-120 -362 0
122 -362 0
-123 -362 0
-124 -362 0
-125 -362 0
-126 -362 0
-130 -362 0
-131 -362 0
132 -362 0
139 -362 0
-140 -362 0
-143 -362 0
-144 -362 0
-147 -362 0
151 -362 0
-152 -362 0
-154 -362 0
-156 -362 0
157 -362 0
-159 -362 0
160 -362 0
-162 -362 0
-167 -362 0
170 -362 0
-171 -362 0
-172 -362 0
175 -362 0
-177 -362 0
-178 -362 0
-179 -362 0
181 -362 0
-184 -362 0
-185 -362 0
-201 -362 0
-204 -362 0
206 -362 0
-207 -362 0
210 -362 0
-213 -362 0
214 -362 0
-217 -362 0
-218 -362 0
-219 -362 0
-221 -362 0
-222 -362 0
224 -362 0
-225 -362 0
226 -362 0
-227 -362 0
-229 -362 0
-231 -362 0
-232 -362 0
-233 -362 0
-234 -362 0
-235 -362 0
239 -362 0
247 -362 0
-248 -362 0
-249 -362 0
253 -362 0
-255 -362 0
258 -362 0
-259 -362 0
-260 -362 0
264 -362 0
-266 -362 0
-267 -362 0
-270 -362 0
-271 -362 0
-272 -362 0
274 -362 0
-277 -362 0
-279 -362 0
280 -362 0
-284 -362 0
-287 -362 0
-288 -362 0
291 -362 0
-303 -362 0
-304 -362 0
-305 -362 0
306 -362 0
-310 -362 0
311 -362 0
-312 -362 0
-313 -362 0
-316 -362 0
319 -362 0
-320 -362 0
-326 -362 0
-327 -362 0
-330 -362 0
331 -362 0
-332 -362 0
362 -363 0
323 -363 0
-31 -364 0
-32 -364 0
-33 -364 0
34 -364 0
-39 -364 0
40 -364 0
-41 -364 0
-42 -364 0
45 -364 0
-48 -364 0
-49 -364 0
-52 -364 0
53 -364 0
-55 -364 0
-56 -364 0
-58 -364 0
-59 -364 0
-60 -364 0
-61 -364 0
63 -364 0
-66 -364 0
-73 -364 0
-74 -364 0
75 -364 0
-76 -364 0
-77 -364 0
87 -364 0
-88 -364 0
-89 -364 0
-90 -364 0
-93 -364 0
-95 -364 0
96 -364 0
-97 -364 0
-100 -364 0
-101 -364 0
-103 -364 0
104 -364 0
107 -364 0
-109 -364 0
-111 -364 0
-120 -364 0
-122 -364 0
-123 -364 0
-124 -364 0
125 -364 0
-126 -364 0
130 -364 0
-131 -364 0
-132 -364 0
139 -364 0
-143 -364 0
-144 -364 0
151 -364 0
-152 -364 0
154 -364 0
-156 -364 0
-157 -364 0
-159 -364 0
-160 -364 0
162 -364 0
-167 -364 0
-170 -364 0
171 -364 0
-172 -364 0
-175 -364 0
-177 -364 0
179 -364 0
181 -364 0
-184 -364 0
-185 -364 0
-201 -364 0
204 -364 0
-206 -364 0
207 -364 0
-210 -364 0
213 -364 0
-214 -364 0
-217 -364 0
-218 -364 0
-219 -364 0
221 -364 0
-222 -364 0
-224 -364 0
226 -364 0
-227 -364 0
-229 -364 0
-231 -364 0
-232 -364 0
-233 -364 0
-235 -364 0
239 -364 0
-248 -364 0
249 -364 0
-253 -364 0
255 -364 0
-259 -364 0
260 -364 0
264 -364 0
-266 -364 0
-267 -364 0
-270 -364 0
-271 -364 0
-274 -364 0
277 -364 0
287 -364 0
-288 -364 0
303 -364 0
-304 -364 0
-305 -364 0
-306 -364 0
-310 -364 0
311 -364 0
-312 -364 0
-313 -364 0
-319 -364 0
320 -364 0
326 -364 0
-327 -364 0
364 -365 0
65 -365 0
-44 -366 0
-51 -366 0
-108 -366 0
-140 -366 0
-147 -366 0
-178 -366 0
-225 -366 0
-234 -366 0
-247 -366 0
-258 -366 0
-272 -366 0
279 -366 0
-280 -366 0
-284 -366 0
-291 -366 0
-316 -366 0
330 -366 0
-331 -366 0
-332 -366 0
365 -367 0
366 -367 0
367 -368 0
-323 -368 0
363 368 -369 0
-47 -370 0
-146 -370 0
-173 -370 0
-180 -370 0
-195 -370 0
-198 -370 0
-215 -370 0
-285 -370 0
369 -371 0
370 -371 0
371 -372 0
193 -372 0
-32 -373 0
-33 -373 0
34 -373 0
39 -373 0
-40 -373 0
-41 -373 0
-42 -373 0
-45 -373 0
47 -373 0
-48 -373 0
-49 -373 0
52 -373 0
-53 -373 0
-56 -373 0
-60 -373 0
-61 -373 0
63 -373 0
-74 -373 0
75 -373 0
-76 -373 0
-87 -373 0
-88 -373 0
89 -373 0
-90 -373 0
93 -373 0
-95 -373 0
-96 -373 0
-97 -373 0
-100 -373 0
-101 -373 0
104 -373 0
108 -373 0
-109 -373 0
-111 -373 0
-120 -373 0
-122 -373 0
-123 -373 0
124 -373 0
-125 -373 0
-126 -373 0
-130 -373 0
-131 -373 0
132 -373 0
-139 -373 0
140 -373 0
-143 -373 0
-144 -373 0
146 -373 0
-152 -373 0
-154 -373 0
-156 -373 0
157 -373 0
-159 -373 0
162 -373 0
-167 -373 0
-170 -373 0
172 -373 0
-173 -373 0
177 -373 0
-179 -373 0
180 -373 0
-181 -373 0
-184 -373 0
201 -373 0
-204 -373 0
-206 -373 0
213 -373 0
-215 -373 0
-217 -373 0
-218 -373 0
-219 -373 0
222 -373 0
-224 -373 0
-226 -373 0
-227 -373 0
-229 -373 0
-231 -373 0
232 -373 0
233 -373 0
-234 -373 0
-239 -373 0
-253 -373 0
-258 -373 0
259 -373 0
-260 -373 0
264 -373 0
-266 -373 0
-267 -373 0
-270 -373 0
-271 -373 0
272 -373 0
-274 -373 0
-277 -373 0
-279 -373 0
-280 -373 0
284 -373 0
-285 -373 0
-287 -373 0
288 -373 0
-303 -373 0
304 -373 0
-305 -373 0
-306 -373 0
310 -373 0
-311 -373 0
-312 -373 0
-313 -373 0
319 -373 0
-320 -373 0
-326 -373 0
327 -373 0
373 -374 0
255 -374 0
-31 -375 0
-44 -375 0
-51 -375 0
-55 -375 0
-58 -375 0
-59 -375 0
65 -375 0
-66 -375 0
-73 -375 0
-77 -375 0
-103 -375 0
-107 -375 0
-147 -375 0
-151 -375 0
-160 -375 0
-171 -375 0
-175 -375 0
-178 -375 0
-185 -375 0
-195 -375 0
198 -375 0
207 -375 0
-210 -375 0
-214 -375 0
-221 -375 0
-225 -375 0
-235 -375 0
-247 -375 0
248 -375 0
-249 -375 0
-291 -375 0
-316 -375 0
330 -375 0
-331 -375 0
-332 -375 0
374 -376 0
375 -376 0
376 -377 0
-323 -377 0
377 -378 0
-193 -378 0
372 378 -379 0
379 -380 0
-286 -380 0
380 -381 0
-194 -381 0
381 -382 0
-153 -383 0
-200 -383 0
-246 -383 0
-263 -383 0
-308 -383 0
-315 -383 0
-322 -383 0
-329 -383 0
-337 -383 0
-338 -383 0
-339 -383 0
-340 -383 0
382 -384 0
383 -384 0
384 -385 0
336 -385 0
-31 -386 0
-32 -386 0
33 -386 0
-34 -386 0
39 -386 0
-40 -386 0
-41 -386 0
-42 -386 0
-45 -386 0
-47 -386 0
48 -386 0
-49 -386 0
-52 -386 0
-53 -386 0
-55 -386 0
56 -386 0
59 -386 0
-61 -386 0
-63 -386 0
-73 -386 0
-74 -386 0
-75 -386 0
76 -386 0
-87 -386 0
88 -386 0
-89 -386 0
-90 -386 0
93 -386 0
-96 -386 0
-97 -386 0
-100 -386 0
101 -386 0
-103 -386 0
-104 -386 0
-107 -386 0
-108 -386 0
-109 -386 0
111 -386 0
-120 -386 0
123 -386 0
-124 -386 0
-125 -386 0
-126 -386 0
-130 -386 0
-131 -386 0
132 -386 0
140 -386 0
-143 -386 0
-144 -386 0
-146 -386 0
151 -386 0
-152 -386 0
153 -386 0
-157 -386 0
-159 -386 0
-170 -386 0
172 -386 0
-173 -386 0
-177 -386 0
178 -386 0
-179 -386 0
180 -386 0
-184 -386 0
-185 -386 0
-200 -386 0
204 -386 0
-206 -386 0
-213 -386 0
214 -386 0
-215 -386 0
-218 -386 0
219 -386 0
-221 -386 0
-225 -386 0
-226 -386 0
227 -386 0
-229 -386 0
-232 -386 0
-234 -386 0
-235 -386 0
239 -386 0
-246 -386 0
-248 -386 0
249 -386 0
258 -386 0
-259 -386 0
-260 -386 0
-263 -386 0
-266 -386 0
267 -386 0
-272 -386 0
-274 -386 0
277 -386 0
287 -386 0
-288 -386 0
-303 -386 0
304 -386 0
-305 -386 0
-306 -386 0
310 -386 0
-311 -386 0
-312 -386 0
-313 -386 0
-315 -386 0
-319 -386 0
320 -386 0
326 -386 0
-327 -386 0
-331 -386 0
-332 -386 0
386 -387 0
329 -387 0
-44 -388 0
-58 -388 0
-77 -388 0
-122 -388 0
-154 -388 0
-156 -388 0
-160 -388 0
162 -388 0
-247 -388 0
-270 -388 0
-308 -388 0
-316 -388 0
337 -388 0
-338 -388 0
-339 -388 0
387 -389 0
388 -389 0
389 -390 0
65 -390 0
390 -391 0
-323 -391 0
-66 -392 0
-175 -392 0
207 -392 0
-210 -392 0
-217 -392 0
-224 -392 0
-231 -392 0
-253 -392 0
-291 -392 0
-340 -392 0
391 -393 0
392 -393 0
393 -394 0
255 -394 0
32 -395 0
-33 -395 0
-34 -395 0
-39 -395 0
-40 -395 0
-41 -395 0
42 -395 0
44 -395 0
-47 -395 0
-48 -395 0
-49 -395 0
-53 -395 0
55 -395 0
-56 -395 0
61 -395 0
-63 -395 0
-73 -395 0
-74 -395 0
-75 -395 0
-76 -395 0
77 -395 0
-87 -395 0
88 -395 0
-89 -395 0
96 -395 0
-97 -395 0
100 -395 0
-101 -395 0
-103 -395 0
-104 -395 0
108 -395 0
-109 -395 0
-111 -395 0
-122 -395 0
-123 -395 0
124 -395 0
-126 -395 0
-130 -395 0
-131 -395 0
132 -395 0
143 -395 0
-144 -395 0
149 -395 0
-152 -395 0
153 -395 0
-156 -395 0
-157 -395 0
-159 -395 0
168 -395 0
-170 -395 0
-172 -395 0
-173 -395 0
-175 -395 0
177 -395 0
-179 -395 0
180 -395 0
-184 -395 0
-200 -395 0
-204 -395 0
206 -395 0
213 -395 0
-217 -395 0
219 -395 0
-224 -395 0
-225 -395 0
-226 -395 0
-227 -395 0
231 -395 0
-232 -395 0
239 -395 0
-258 -395 0
-259 -395 0
260 -395 0
-263 -395 0
266 -395 0
-267 -395 0
272 -395 0
-274 -395 0
-277 -395 0
-287 -395 0
-288 -395 0
291 -395 0
-304 -395 0
305 -395 0
-306 -395 0
-311 -395 0
-312 -395 0
313 -395 0
318 -395 0
-319 -395 0
-320 -395 0
395 -396 0
-234 -396 0
-58 -397 0
-93 -397 0
-146 -397 0
-218 -397 0
-270 -397 0
-303 -397 0
-308 -397 0
-316 -397 0
324 -397 0
-327 -397 0
-331 -397 0
-332 -397 0
337 -397 0
-340 -397 0
396 -398 0
397 -398 0
398 -399 0
329 -399 0
-32 -400 0
33 -400 0
-34 -400 0
39 -400 0
-40 -400 0
-41 -400 0
-42 -400 0
-44 -400 0
-47 -400 0
-48 -400 0
49 -400 0
-53 -400 0
55 -400 0
-56 -400 0
58 -400 0
-61 -400 0
-63 -400 0
-73 -400 0
-74 -400 0
75 -400 0
-76 -400 0
-77 -400 0
-87 -400 0
-88 -400 0
89 -400 0
93 -400 0
-96 -400 0
-97 -400 0
-100 -400 0
-101 -400 0
-103 -400 0
104 -400 0
108 -400 0
-109 -400 0
-111 -400 0
122 -400 0
-123 -400 0
-124 -400 0
-126 -400 0
-130 -400 0
131 -400 0
-132 -400 0
143 -400 0
-144 -400 0
146 -400 0
-152 -400 0
-153 -400 0
-156 -400 0
-157 -400 0
159 -400 0
-170 -400 0
172 -400 0
-173 -400 0
175 -400 0
-177 -400 0
-179 -400 0
-180 -400 0
184 -400 0
200 -400 0
-204 -400 0
-206 -400 0
-213 -400 0
217 -400 0
-218 -400 0
-219 -400 0
-224 -400 0
225 -400 0
226 -400 0
-227 -400 0
-231 -400 0
-232 -400 0
234 -400 0
-239 -400 0
258 -400 0
-259 -400 0
-260 -400 0
-263 -400 0
-266 -400 0
267 -400 0
-270 -400 0
-272 -400 0
-274 -400 0
277 -400 0
287 -400 0
-288 -400 0
-291 -400 0
303 -400 0
-304 -400 0
-305 -400 0
-306 -400 0
308 -400 0
-311 -400 0
-312 -400 0
-313 -400 0
316 -400 0
-319 -400 0
-320 -400 0
327 -400 0
-331 -400 0
332 -400 0
-337 -400 0
340 -400 0
400 -401 0
-329 -401 0
399 401 -402 0
-31 -403 0
-45 -403 0
-52 -403 0
-59 -403 0
66 -403 0
-107 -403 0
-125 -403 0
-151 -403 0
-178 -403 0
-185 -403 0
-207 -403 0
210 -403 0
-214 -403 0
-221 -403 0
-235 -403 0
-246 -403 0
248 -403 0
-315 -403 0
-338 -403 0
-339 -403 0
402 -404 0
403 -404 0
404 -405 0
-323 -405 0
-65 -406 0
-90 -406 0
-120 -406 0
-140 -406 0
-154 -406 0
160 -406 0
-162 -406 0
-215 -406 0
-229 -406 0
-247 -406 0
-249 -406 0
253 -406 0
-310 -406 0
-326 -406 0
405 -407 0
406 -407 0
407 -408 0
-255 -408 0
394 408 -409 0
-51 -410 0
-95 -410 0
-147 -410 0
-167 -410 0
-181 -410 0
-193 -410 0
-195 -410 0
-198 -410 0
-201 -410 0
-222 -410 0
-286 -410 0
-330 -410 0
409 -411 0
410 -411 0
411 -412 0
194 -412 0
31 -413 0
-32 -413 0
-33 -413 0
-34 -413 0
-39 -413 0
-40 -413 0
-41 -413 0
42 -413 0
-45 -413 0
48 -413 0
-49 -413 0
-52 -413 0
53 -413 0
-55 -413 0
-56 -413 0
-59 -413 0
61 -413 0
-63 -413 0
-73 -413 0
74 -413 0
-75 -413 0
-76 -413 0
-87 -413 0
88 -413 0
-89 -413 0
-90 -413 0
-93 -413 0
-95 -413 0
-96 -413 0
97 -413 0
-100 -413 0
-101 -413 0
103 -413 0
-104 -413 0
107 -413 0
-108 -413 0
-109 -413 0
-111 -413 0
-120 -413 0
-123 -413 0
124 -413 0
126 -413 0
-130 -413 0
-131 -413 0
-132 -413 0
143 -413 0
-144 -413 0
-147 -413 0
-151 -413 0
152 -413 0
-153 -413 0
154 -413 0
-157 -413 0
-159 -413 0
167 -413 0
-170 -413 0
-172 -413 0
177 -413 0
-178 -413 0
-181 -413 0
-184 -413 0
185 -413 0
-201 -413 0
-204 -413 0
206 -413 0
-213 -413 0
-214 -413 0
218 -413 0
-219 -413 0
-221 -413 0
222 -413 0
-225 -413 0
227 -413 0
-229 -413 0
-232 -413 0
235 -413 0
-239 -413 0
246 -413 0
-247 -413 0
-248 -413 0
-249 -413 0
-258 -413 0
259 -413 0
-260 -413 0
-263 -413 0
-266 -413 0
-267 -413 0
270 -413 0
-272 -413 0
274 -413 0
-277 -413 0
-287 -413 0
-288 -413 0
-303 -413 0
-304 -413 0
305 -413 0
-306 -413 0
-310 -413 0
-311 -413 0
-312 -413 0
313 -413 0
331 -413 0
-332 -413 0
-338 -413 0
339 -413 0
413 -414 0
286 -414 0
-122 -415 0
-156 -415 0
162 -415 0
-217 -415 0
-224 -415 0
-231 -415 0
-253 -415 0
-291 -415 0
-340 -415 0
414 -416 0
415 -416 0
416 -417 0
255 -417 0
-47 -418 0
-125 -418 0
-146 -418 0
-173 -418 0
-180 -418 0
-198 -418 0
-200 -418 0
-215 -418 0
-226 -418 0
315 -418 0
-319 -418 0
-320 -418 0
-329 -418 0
417 -419 0
418 -419 0
419 -420 0
193 -420 0
-140 -421 0
-179 -421 0
-234 -421 0
-316 -421 0
-326 -421 0
-327 -421 0
-330 -421 0
-337 -421 0
420 -422 0
421 -422 0
422 -423 0
323 -423 0
-44 -424 0
-51 -424 0
-58 -424 0
65 -424 0
-66 -424 0
-77 -424 0
-160 -424 0
-175 -424 0
-195 -424 0
207 -424 0
-210 -424 0
-308 -424 0
423 -425 0
424 -425 0
425 -426 0
-194 -426 0
412 426 -427 0
-60 -428 0
-139 -428 0
-171 -428 0
-233 -428 0
-264 -428 0
-271 -428 0
-279 -428 0
-280 -428 0
-284 -428 0
-285 -428 0
-322 -428 0
427 -429 0
428 -429 0
429 -430 0
278 -430 0
-31 -431 0
32 -431 0
-33 -431 0
-34 -431 0
-39 -431 0
40 -431 0
-41 -431 0
-42 -431 0
-45 -431 0
-47 -431 0
-48 -431 0
49 -431 0
-52 -431 0
-53 -431 0
55 -431 0
-56 -431 0
59 -431 0
-60 -431 0
-61 -431 0
-63 -431 0
73 -431 0
-74 -431 0
-75 -431 0
-76 -431 0
-87 -431 0
-88 -431 0
-89 -431 0
90 -431 0
-93 -431 0
96 -431 0
-97 -431 0
-100 -431 0
101 -431 0
-103 -431 0
-104 -431 0
-107 -431 0
109 -431 0
-111 -431 0
120 -431 0
-123 -431 0
-124 -431 0
-125 -431 0
-126 -431 0
-130 -431 0
131 -431 0
-132 -431 0
-139 -431 0
143 -431 0
-144 -431 0
-146 -431 0
-151 -431 0
152 -431 0
153 -431 0
-154 -431 0
-157 -431 0
-159 -431 0
170 -431 0
-171 -431 0
-172 -431 0
173 -431 0
-177 -431 0
-179 -431 0
-180 -431 0
-184 -431 0
185 -431 0
-200 -431 0
-204 -431 0
206 -431 0
-213 -431 0
-214 -431 0
215 -431 0
-218 -431 0
-219 -431 0
-221 -431 0
225 -431 0
226 -431 0
-227 -431 0
-229 -431 0
-232 -431 0
-233 -431 0
235 -431 0
-239 -431 0
247 -431 0
-248 -431 0
-249 -431 0
-259 -431 0
-260 -431 0
263 -431 0
-264 -431 0
266 -431 0
-267 -431 0
-270 -431 0
-271 -431 0
274 -431 0
-277 -431 0
285 -431 0
-287 -431 0
-288 -431 0
-303 -431 0
-304 -431 0
-305 -431 0
306 -431 0
-310 -431 0
-311 -431 0
312 -431 0
-313 -431 0
-315 -431 0
316 -431 0
-319 -431 0
-320 -431 0
322 -431 0
-326 -431 0
-327 -431 0
331 -431 0
-332 -431 0
-337 -431 0
-338 -431 0
339 -431 0
431 -432 0
-329 -432 0
-108 -433 0
-140 -433 0
-178 -433 0
-234 -433 0
-258 -433 0
-272 -433 0
-280 -433 0
-284 -433 0
432 -434 0
433 -434 0
434 -435 0
279 -435 0
-122 -436 0
-156 -436 0
162 -436 0
-217 -436 0
-224 -436 0
-231 -436 0
-246 -436 0
-253 -436 0
255 -436 0
-291 -436 0
-340 -436 0
435 -437 0
436 -437 0
437 -438 0
-323 -438 0
-44 -439 0
-58 -439 0
-66 -439 0
-77 -439 0
-160 -439 0
-175 -439 0
207 -439 0
-210 -439 0
-308 -439 0
438 -440 0
439 -440 0
440 -441 0
65 -441 0
441 -442 0
410 -442 0
442 -443 0
194 -443 0
-31 -444 0
-32 -444 0
33 -444 0
-34 -444 0
-39 -444 0
-40 -444 0
41 -444 0
-42 -444 0
-44 -444 0
45 -444 0
-47 -444 0
-48 -444 0
-49 -444 0
-51 -444 0
-52 -444 0
-53 -444 0
-55 -444 0
56 -444 0
-58 -444 0
-59 -444 0
60 -444 0
-61 -444 0
-63 -444 0
-66 -444 0
-73 -444 0
-74 -444 0
-75 -444 0
76 -444 0
-77 -444 0
87 -444 0
-88 -444 0
-89 -444 0
-90 -444 0
-93 -444 0
95 -444 0
-96 -444 0
-97 -444 0
100 -444 0
-101 -444 0
-103 -444 0
-104 -444 0
-107 -444 0
-108 -444 0
-109 -444 0
111 -444 0
-120 -444 0
-122 -444 0
-123 -444 0
-124 -444 0
125 -444 0
-126 -444 0
-130 -444 0
131 -444 0
-132 -444 0
139 -444 0
-140 -444 0
-143 -444 0
-144 -444 0
-146 -444 0
147 -444 0
-151 -444 0
-152 -444 0
-153 -444 0
-154 -444 0
-156 -444 0
157 -444 0
-159 -444 0
-160 -444 0
162 -444 0
-167 -444 0
170 -444 0
-171 -444 0
-172 -444 0
-173 -444 0
-175 -444 0
-177 -444 0
-178 -444 0
179 -444 0
-180 -444 0
181 -444 0
-184 -444 0
-185 -444 0
-193 -444 0
-195 -444 0
198 -444 0
200 -444 0
-201 -444 0
-204 -444 0
-206 -444 0
207 -444 0
-210 -444 0
-213 -444 0
-214 -444 0
215 -444 0
-217 -444 0
-218 -444 0
219 -444 0
-221 -444 0
-222 -444 0
-224 -444 0
-225 -444 0
-226 -444 0
-227 -444 0
-229 -444 0
-231 -444 0
232 -444 0
-233 -444 0
234 -444 0
-235 -444 0
-239 -444 0
-246 -444 0
-247 -444 0
248 -444 0
-249 -444 0
-253 -444 0
255 -444 0
258 -444 0
-259 -444 0
-260 -444 0
-263 -444 0
-264 -444 0
266 -444 0
-267 -444 0
-270 -444 0
271 -444 0
-272 -444 0
-274 -444 0
-277 -444 0
-279 -444 0
-280 -444 0
284 -444 0
-285 -444 0
-286 -444 0
-287 -444 0
288 -444 0
-291 -444 0
303 -444 0
-304 -444 0
-305 -444 0
-306 -444 0
-308 -444 0
-310 -444 0
311 -444 0
-312 -444 0
-313 -444 0
-315 -444 0
-316 -444 0
319 -444 0
-320 -444 0
-322 -444 0
-323 -444 0
-326 -444 0
327 -444 0
329 -444 0
-330 -444 0
-331 -444 0
-332 -444 0
337 -444 0
-338 -444 0
-339 -444 0
-340 -444 0
444 -445 0
65 -445 0
-31 -446 0
-32 -446 0
-33 -446 0
34 -446 0
-39 -446 0
40 -446 0
-42 -446 0
44 -446 0
-45 -446 0
-48 -446 0
-49 -446 0
-51 -446 0
-52 -446 0
-53 -446 0
-55 -446 0
56 -446 0
-58 -446 0
-59 -446 0
60 -446 0
-61 -446 0
-63 -446 0
66 -446 0
-73 -446 0
-74 -446 0
-75 -446 0
76 -446 0
-77 -446 0
87 -446 0
-88 -446 0
-89 -446 0
-93 -446 0
95 -446 0
-96 -446 0
-97 -446 0
100 -446 0
-101 -446 0
-103 -446 0
-104 -446 0
-107 -446 0
-108 -446 0
-109 -446 0
111 -446 0
-122 -446 0
123 -446 0
-124 -446 0
-125 -446 0
129 -446 0
-130 -446 0
-131 -446 0
-132 -446 0
-143 -446 0
-144 -446 0
145 -446 0
151 -446 0
-152 -446 0
167 -446 0
-170 -446 0
-171 -446 0
-172 -446 0
-175 -446 0
177 -446 0
-178 -446 0
-179 -446 0
-181 -446 0
-184 -446 0
-185 -446 0
186 -446 0
-201 -446 0
202 -446 0
-204 -446 0
-206 -446 0
-207 -446 0
210 -446 0
-213 -446 0
-214 -446 0
-217 -446 0
218 -446 0
-219 -446 0
221 -446 0
-222 -446 0
-224 -446 0
-225 -446 0
-226 -446 0
-227 -446 0
-229 -446 0
231 -446 0
-232 -446 0
233 -446 0
-234 -446 0
-235 -446 0
-239 -446 0
247 -446 0
-248 -446 0
-249 -446 0
253 -446 0
-258 -446 0
260 -446 0
-263 -446 0
-264 -446 0
-266 -446 0
-267 -446 0
270 -446 0
271 -446 0
-272 -446 0
-274 -446 0
-277 -446 0
-279 -446 0
280 -446 0
-284 -446 0
286 -446 0
-287 -446 0
-288 -446 0
-291 -446 0
303 -446 0
-304 -446 0
-305 -446 0
-306 -446 0
308 -446 0
-311 -446 0
-312 -446 0
-313 -446 0
-315 -446 0
316 -446 0
-319 -446 0
-320 -446 0
-322 -446 0
-323 -446 0
-326 -446 0
327 -446 0
-331 -446 0
332 -446 0
-337 -446 0
-338 -446 0
-339 -446 0
340 -446 0
446 -447 0
-255 -447 0
-41 -448 0
-47 -448 0
-126 -448 0
-139 -448 0
-146 -448 0
153 -448 0
-156 -448 0
-157 -448 0
-159 -448 0
-173 -448 0
-180 -448 0
-195 -448 0
-198 -448 0
-200 -448 0
-215 -448 0
-246 -448 0
-259 -448 0
-285 -448 0
-329 -448 0
-330 -448 0
447 -449 0
448 -449 0
449 -450 0
193 -450 0
-31 -451 0
32 -451 0
-33 -451 0
-34 -451 0
-39 -451 0
-40 -451 0
41 -451 0
-42 -451 0
-44 -451 0
-45 -451 0
47 -451 0
-48 -451 0
-49 -451 0
51 -451 0
-52 -451 0
-53 -451 0
-56 -451 0
-58 -451 0
-59 -451 0
-60 -451 0
-61 -451 0
63 -451 0
66 -451 0
-73 -451 0
74 -451 0
-75 -451 0
-76 -451 0
-77 -451 0
-87 -451 0
88 -451 0
-89 -451 0
-93 -451 0
-95 -451 0
-96 -451 0
97 -451 0
-100 -451 0
-101 -451 0
103 -451 0
-104 -451 0
107 -451 0
-108 -451 0
-109 -451 0
-111 -451 0
-122 -451 0
-123 -451 0
124 -451 0
-125 -451 0
-126 -451 0
130 -451 0
-131 -451 0
-132 -451 0
-143 -451 0
-144 -451 0
-146 -451 0
-151 -451 0
152 -451 0
156 -451 0
-157 -451 0
-159 -451 0
-167 -451 0
170 -451 0
-171 -451 0
-172 -451 0
-173 -451 0
-175 -451 0
-177 -451 0
-178 -451 0
179 -451 0
180 -451 0
-181 -451 0
-184 -451 0
-185 -451 0
195 -451 0
-198 -451 0
201 -451 0
-204 -451 0
-206 -451 0
-207 -451 0
210 -451 0
213 -451 0
-214 -451 0
-217 -451 0
-218 -451 0
-221 -451 0
224 -451 0
-225 -451 0
-227 -451 0
-231 -451 0
232 -451 0
-234 -451 0
235 -451 0
-239 -451 0
-258 -451 0
-259 -451 0
-260 -451 0
263 -451 0
-264 -451 0
266 -451 0
-267 -451 0
-270 -451 0
-271 -451 0
-272 -451 0
274 -451 0
-277 -451 0
279 -451 0
-280 -451 0
-284 -451 0
285 -451 0
-286 -451 0
-287 -451 0
-288 -451 0
-291 -451 0
303 -451 0
-304 -451 0
-305 -451 0
-306 -451 0
308 -451 0
-311 -451 0
-312 -451 0
-313 -451 0
-315 -451 0
316 -451 0
-319 -451 0
-320 -451 0
-322 -451 0
327 -451 0
-329 -451 0
-330 -451 0
-331 -451 0
332 -451 0
-337 -451 0
-338 -451 0
-339 -451 0
340 -451 0
451 -452 0
139 -452 0
-31 -453 0
-32 -453 0
-33 -453 0
34 -453 0
-39 -453 0
-41 -453 0
42 -453 0
-44 -453 0
-45 -453 0
47 -453 0
-48 -453 0
-49 -453 0
-52 -453 0
53 -453 0
-56 -453 0
58 -453 0
-59 -453 0
-60 -453 0
-61 -453 0
-63 -453 0
66 -453 0
-73 -453 0
-74 -453 0
-75 -453 0
-76 -453 0
77 -453 0
87 -453 0
-88 -453 0
-89 -453 0
93 -453 0
-95 -453 0
-96 -453 0
-97 -453 0
-100 -453 0
-101 -453 0
103 -453 0
-104 -453 0
-107 -453 0
-108 -453 0
109 -453 0
-111 -453 0
-122 -453 0
123 -453 0
-124 -453 0
-125 -453 0
-130 -453 0
-131 -453 0
132 -453 0
-143 -453 0
144 -453 0
156 -453 0
-157 -453 0
-159 -453 0
167 -453 0
-170 -453 0
-171 -453 0
173 -453 0
-175 -453 0
-177 -453 0
-178 -453 0
-179 -453 0
-180 -453 0
-181 -453 0
184 -453 0
-185 -453 0
195 -453 0
-198 -453 0
-201 -453 0
-204 -453 0
206 -453 0
210 -453 0
-213 -453 0
217 -453 0
-218 -453 0
221 -453 0
-224 -453 0
227 -453 0
-231 -453 0
-232 -453 0
-234 -453 0
-235 -453 0
239 -453 0
-258 -453 0
259 -453 0
-260 -453 0
-263 -453 0
-264 -453 0
-266 -453 0
267 -453 0
-270 -453 0
271 -453 0
-272 -453 0
-274 -453 0
-277 -453 0
279 -453 0
-280 -453 0
-284 -453 0
-287 -453 0
-288 -453 0
291 -453 0
-303 -453 0
304 -453 0
-305 -453 0
-306 -453 0
-311 -453 0
312 -453 0
-313 -453 0
-319 -453 0
320 -453 0
338 -453 0
-339 -453 0
-340 -453 0
453 -454 0
-207 -454 0
-40 -455 0
-51 -455 0
-126 -455 0
146 -455 0
-151 -455 0
-152 -455 0
-172 -455 0
-214 -455 0
-225 -455 0
-285 -455 0
-286 -455 0
-308 -455 0
-315 -455 0
-316 -455 0
322 -455 0
-327 -455 0
-329 -455 0
330 -455 0
-331 -455 0
-332 -455 0
-337 -455 0
454 -456 0
455 -456 0
456 -457 0
-139 -457 0
452 457 -458 0
458 -459 0
-323 -459 0
-55 -460 0
-153 -460 0
-200 -460 0
-215 -460 0
-219 -460 0
-222 -460 0
-226 -460 0
-229 -460 0
-233 -460 0
246 -460 0
-247 -460 0
-248 -460 0
-249 -460 0
253 -460 0
-255 -460 0
-326 -460 0
459 -461 0
460 -461 0
461 -462 0
-193 -462 0
450 462 -463 0
-90 -464 0
-120 -464 0
-140 -464 0
-147 -464 0
-154 -464 0
160 -464 0
-162 -464 0
-310 -464 0
463 -465 0
464 -465 0
465 -466 0
-65 -466 0
445 466 -467 0
467 -468 0
-194 -468 0
443 468 -469 0
469 -470 0
-278 -470 0
430 470 -471 0
471 -472 0
-336 -472 0
473 -474 0
-199 -474 0
475 -477 0
1 0
2 0
3 0
4 0
5 0
6 0
7 0
-8 0
-9 0
-10 0
-11 0
-12 0
-13 0
-14 0
-15 0
-16 0
-17 0
-18 0
-19 0
-20 0
-21 0
-22 0
-23 0
-24 0
-25 0
-26 0
-27 0
-28 0
-29 0
-30 0
-35 0
-36 0
-37 0
-38 0
-43 0
-46 0
-50 0
-54 0
-57 0
-62 0
-64 0
-67 0
-68 0
-69 0
-70 0
-71 0
-72 0
-78 0
-79 0
-80 0
-81 0
-82 0
-83 0
-84 0
-85 0
-86 0
-91 0
-92 0
-94 0
-98 0
-99 0
-102 0
-105 0
-106 0
-110 0
112 0
-113 0
-114 0
-115 0
-116 0
-117 0
-118 0
-119 0
-121 0
-127 0
-128 0
-133 0
-134 0
-135 0
-136 0
-137 0
-138 0
-141 0
-142 0
-148 0
-150 0
-155 0
-158 0
-161 0
-163 0
-164 0
-165 0
-166 0
-169 0
-174 0
-176 0
-182 0
-183 0
-187 0
-188 0
-189 0
-190 0
-191 0
-192 0
-196 0
-197 0
-203 0
-205 0
-208 0
-209 0
-211 0
-212 0
-216 0
-220 0
-223 0
-228 0
-230 0
-236 0
-237 0
-238 0
-240 0
-241 0
-242 0
-243 0
-244 0
-245 0
-250 0
-251 0
-252 0
-254 0
-256 0
-257 0
-261 0
-262 0
-265 0
-268 0
-269 0
-273 0
-275 0
-276 0
-281 0
-282 0
-283 0
-289 0
-290 0
-292 0
-293 0
-294 0
-295 0
-296 0
-297 0
298 0
-299 0
-300 0
-301 0
-302 0
-307 0
-309 0
-314 0
-317 0
-321 0
-325 0
-328 0
-333 0
-334 0
-335 0
-341 0
-342 0
-343 0
-476 477 0
-403 404 0
-33 362 386 400 444 0
277 344 352 362 373 395 413 431 444 446 451 453 0
336 359 472 0
126 344 362 364 373 386 395 400 431 444 448 451 455 0
-219 386 395 444 0
330 359 362 410 421 444 448 451 0
120 352 362 364 373 386 406 413 444 464 0
-213 364 373 395 451 0
-438 440 0
-255 359 364 374 394 417 436 444 0
-422 423 0
-288 373 444 0
231 359 362 364 373 392 400 415 436 444 451 453 0
217 359 362 364 373 392 395 415 436 444 446 451 0
-125 364 444 0
210 359 364 375 392 424 439 444 0
-363 369 0
-320 364 386 453 0
195 359 370 375 410 424 444 448 0
-103 344 413 451 453 0
194 359 381 426 468 0
-312 352 431 453 0
179 359 362 373 386 395 400 421 431 446 453 0
-87 364 444 446 453 0
175 359 364 375 392 395 424 439 444 446 451 453 0
104 359 362 386 395 413 431 444 446 451 453 0
56 359 362 364 373 395 400 413 431 451 453 0
-445 467 0
-358 360 0
156 346 352 362 364 373 388 395 400 415 436 444 448 0
-229 344 352 0
-432 434 0
39 344 352 362 364 395 413 431 444 446 451 453 0
-284 373 444 0
272 344 362 366 386 400 413 433 444 446 451 453 0
-355 356 0
-95 344 362 444 446 0
-353 355 0
-352 353 0
-323 352 363 423 0
286 352 380 410 444 451 455 0
-42 352 362 395 413 453 0
-405 407 0
246 354 383 386 403 436 444 448 0
-285 352 431 451 0
235 349 352 362 364 375 386 403 444 446 453 0
40 344 352 362 373 386 395 400 413 444 451 455 0
313 352 362 364 373 386 400 431 444 446 451 453 0
103 352 362 364 375 386 395 400 431 444 446 0
-267 352 386 400 453 0
-356 357 0
-263 352 431 451 0
-225 352 400 431 0
274 344 352 364 373 386 395 400 444 446 453 0
-406 407 0
221 352 362 375 386 403 413 431 444 451 0
-339 413 431 0
-129 446 0
218 352 362 364 373 386 397 400 431 444 451 453 0
-336 385 0
-214 352 362 386 0
331 344 352 366 375 386 397 400 444 446 451 455 0
-449 450 0
-109 352 431 453 0
-319 362 373 444 0
-402 404 0
173 352 370 373 386 395 400 418 444 448 451 0
146 352 370 386 397 418 431 444 448 451 0
-32 344 395 431 451 0
108 352 362 366 386 413 433 444 446 451 453 0
-207 359 364 375 392 424 439 444 0
-199 361 0
316 354 362 366 375 388 397 421 444 455 0
90 352 362 364 373 386 406 413 444 464 0
-89 352 362 373 400 0
181 344 352 373 410 413 446 451 453 0
171 352 362 375 428 431 444 446 451 453 0
-60 352 362 444 446 0
-55 352 395 400 431 0
49 352 362 364 373 386 395 413 444 446 451 453 0
-47 352 373 451 453 0
260 352 362 373 386 400 413 431 444 451 453 0
32 352 362 364 373 386 400 413 444 446 453 0
227 349 352 362 364 373 395 400 431 444 446 451 0
-277 364 386 400 0
-351 357 0
-350 351 0
247 349 366 375 388 406 413 444 460 0
323 349 368 377 391 405 438 444 446 459 0
-206 362 395 413 431 453 0
-362 363 0
239 349 352 373 400 413 431 444 446 451 0
-272 352 373 395 0
222 344 352 362 364 410 444 446 460 0
-379 380 0
-340 400 446 451 0
-412 427 0
-331 362 413 431 0
-74 352 413 451 0
-365 367 0
177 349 352 362 364 386 400 431 444 451 453 0
311 344 352 373 386 395 400 413 431 446 451 453 0
-194 412 443 0
44 349 352 362 366 375 388 400 424 439 444 451 453 0
-100 352 395 444 446 0
-359 360 0
329 344 352 383 401 418 432 448 451 455 0
-76 386 444 446 0
157 344 352 364 386 395 400 413 431 448 451 453 0
-347 348 0
-162 346 352 364 373 388 415 436 444 0
178 344 362 366 375 403 413 433 444 446 451 453 0
319 344 352 364 386 395 400 418 431 446 451 453 0
109 344 362 364 373 386 395 400 413 444 446 451 0
-202 446 0
170 344 352 364 373 386 395 400 413 446 453 0
-108 344 373 395 400 0
200 344 383 386 395 418 431 448 460 0
-318 395 0
-227 386 413 453 0
-31 352 413 0
131 344 352 362 364 373 386 395 413 446 451 453 0
153 344 352 383 400 413 444 460 0
326 359 362 373 406 421 431 444 446 460 0
151 344 352 375 403 413 431 444 451 455 0
-376 377 0
-344 345 0
322 354 383 428 444 446 451 0
147 344 362 366 375 410 413 464 0
42 344 364 373 386 400 431 444 446 451 0
-304 373 386 453 0
61 352 362 364 373 386 400 431 444 446 451 453 0
-173 344 431 453 0
143 344 352 362 364 373 386 444 446 451 453 0
167 344 362 364 373 410 444 451 0
-75 364 373 400 0
-200 352 400 444 0
107 344 352 375 386 403 431 444 446 453 0
-400 401 0
-411 412 0
96 344 352 362 373 386 400 413 444 446 451 453 0
306 344 364 373 386 395 400 413 444 446 451 453 0
-464 465 0
160 346 352 364 375 388 424 439 444 0
253 359 364 373 392 415 436 444 0
291 359 366 375 392 400 415 436 444 446 451 0
-49 344 400 431 0
-120 344 431 0
-330 366 375 455 0
-470 471 0
-440 441 0
111 344 352 362 364 373 395 400 413 431 451 453 0
-204 364 386 0
-395 396 0
206 359 364 373 386 400 444 446 451 0
-324 397 0
-167 352 413 446 453 0
74 344 362 364 373 386 395 400 431 444 446 453 0
55 344 362 364 375 386 413 444 446 460 0
139 344 352 373 428 431 448 457 0
34 344 352 362 386 395 400 413 431 444 451 0
229 362 364 373 386 406 413 431 444 446 460 0
-279 366 435 451 453 0
100 344 362 364 373 386 400 413 431 451 453 0
-193 372 420 450 0
-123 352 386 446 453 0
215 344 352 370 373 386 406 418 448 460 0
-286 344 414 446 0
-316 344 400 431 446 451 0
198 359 370 410 418 448 451 453 0
-408 409 0
-159 344 352 400 0
31 344 362 364 375 386 403 431 444 446 451 453 0
66 359 364 375 392 424 439 444 0
-221 344 364 446 453 0
338 383 388 403 413 431 444 446 451 0
-349 350 0
-291 362 395 453 0
48 344 352 364 373 395 400 431 444 446 451 453 0
-313 344 395 413 0
-424 425 0
-218 344 413 446 0
125 344 352 362 373 386 403 418 431 446 451 453 0
53 344 352 362 373 386 395 400 431 444 446 451 0
-451 452 0
-52 344 373 0
-144 344 352 453 0
-410 411 442 0
-271 344 444 446 453 0
-310 373 386 0
132 344 352 364 400 413 431 444 446 451 0
41 352 362 364 373 386 395 400 413 431 448 453 0
-459 461 0
75 344 352 362 386 395 413 431 444 446 451 453 0
-168 395 0
193 359 378 410 444 462 0
-101 362 386 431 0
-311 362 364 444 0
-90 344 431 0
123 344 362 364 373 395 400 413 431 444 451 0
-444 445 0
249 344 352 362 375 406 413 431 444 446 460 0
287 344 352 362 373 395 413 431 444 446 451 453 0
-371 372 0
124 344 352 362 364 386 400 431 444 446 453 0
-217 400 453 0
-315 352 418 0
288 344 352 362 364 386 395 400 413 431 446 451 453 0
-239 362 364 386 395 453 0
-146 345 373 400 455 0
-178 352 386 0
-97 352 413 451 0
-280 344 352 362 446 0
172 359 362 364 395 413 431 444 446 451 455 0
-450 463 0
-471 472 0
-130 344 364 451 0
225 344 362 366 375 386 395 413 444 446 451 455 0
-73 344 431 0
-180 373 386 395 451 0
-354 355 0
47 344 370 386 395 400 418 431 444 448 0
-473 474 0
33 344 352 364 373 395 413 431 446 451 453 0
89 344 364 386 395 413 431 444 446 451 453 0
-61 344 395 413 0
303 344 352 362 373 386 397 413 431 453 0
-186 446 0
-337 388 397 444 0
76 344 352 362 364 373 395 400 413 431 451 453 0
88 344 352 362 364 373 400 431 444 446 453 0
-332 344 352 400 446 451 0
-122 362 400 0
180 344 352 370 400 418 431 444 448 453 0
-88 386 395 413 451 0
224 359 364 373 392 395 400 415 436 444 446 453 0
-274 362 413 431 451 0
-446 447 0
-184 344 352 400 453 0
-126 352 413 0
-360 361 0
185 344 352 362 364 375 386 403 444 446 451 453 0
-93 373 386 400 453 0
97 344 362 364 373 386 395 400 431 444 446 453 0
-435 437 0
204 344 352 362 373 395 400 413 431 444 446 451 453 0
-322 344 431 455 0
232 344 352 362 364 386 395 400 413 431 446 453 0
248 344 352 362 364 386 413 431 446 460 0
-441 442 0
332 362 366 375 386 397 413 431 444 455 0
-215 431 444 0
63 344 352 362 386 395 400 413 431 444 446 453 0
-306 352 362 431 0
-96 364 395 431 0
259 344 352 362 364 386 395 400 431 444 448 451 0
-260 344 364 395 446 0
-436 437 0
-51 362 451 0
-368 369 0
337 344 352 383 400 421 431 446 451 455 0
263 344 383 386 395 400 413 444 446 453 0
-270 344 413 446 0
-234 351 400 444 0
-39 373 386 400 0
-246 344 413 460 0
-447 449 0
284 344 352 362 366 428 433 446 451 453 0
-40 364 431 446 0
-235 413 431 451 0
-247 352 362 431 446 0
285 344 370 373 428 444 448 455 0
-41 344 444 451 0
-421 422 0
258 344 352 366 373 395 413 433 446 451 453 0
312 344 362 364 373 386 395 400 413 444 446 451 0
-195 451 453 0
140 359 362 366 406 421 433 444 464 0
-416 417 0
-391 393 0
315 344 383 386 403 431 444 446 451 455 0
320 344 352 362 373 395 400 418 431 444 446 451 0
152 359 362 364 373 386 395 400 444 446 455 0
-210 362 403 446 451 453 0
154 344 352 362 373 388 406 431 444 464 0
45 344 352 362 373 386 403 413 431 446 451 453 0
-396 398 0
339 344 352 383 388 403 444 446 451 453 0
-394 409 0
-222 373 413 0
-303 364 400 444 446 451 0
60 344 364 373 428 431 451 453 0
-338 344 352 453 0
-389 390 0
-348 350 0
51 346 352 366 375 410 424 444 446 455 0
58 346 352 362 364 375 388 397 424 439 444 446 451 0
-454 456 0
-346 347 0
-171 344 364 0
-278 430 0
-415 416 0
59 344 352 362 364 375 403 413 444 446 451 453 0
266 344 352 362 364 373 386 400 413 446 453 0
-160 362 406 464 0
-170 362 431 444 451 0
-233 352 373 446 0
-66 362 403 446 451 453 0
-77 362 395 453 0
-107 362 364 413 451 0
199 474 0
-132 362 373 386 395 453 0
144 362 364 373 386 395 400 413 431 444 446 451 0
-151 362 364 386 446 0
-157 362 373 444 0
159 362 364 373 386 395 413 431 444 448 451 453 0
162 362 406 464 0
-434 435 0
-175 362 400 0
184 362 364 373 386 395 413 431 444 446 451 0
207 362 403 446 451 454 0
-224 362 451 0
-226 362 364 400 431 0
-253 362 406 446 460 0
255 362 408 447 460 0
-258 362 386 400 444 0
-429 430 0
-65 348 352 365 375 390 424 441 445 0
-264 362 364 373 0
-45 364 444 0
-53 364 413 453 0
305 352 362 364 373 386 400 431 444 446 451 453 0
-63 364 373 451 0
-104 364 373 400 0
-154 364 413 0
-179 364 444 451 0
-326 364 386 0
95 352 364 373 410 413 451 453 0
-364 365 0
280 366 373 428 433 444 451 453 0
-231 395 446 0
-462 463 0
65 362 406 466 0
264 344 352 428 431 444 446 451 453 0
-367 368 0
-369 371 0
-370 371 0
-372 379 0
-124 373 395 413 451 0
-140 373 386 0
-172 373 386 400 0
101 349 352 364 373 395 400 413 444 446 451 453 0
-448 449 0
-177 373 395 413 446 0
234 356 362 366 373 386 396 421 433 446 451 453 0
-468 469 0
-232 373 444 451 0
-259 373 413 453 0
-327 373 400 444 446 451 0
-373 374 0
-201 344 373 451 0
-374 376 0
-248 375 403 444 0
-472 473 0
-375 376 0
-249 364 386 0
-377 378 0
-423 425 0
-378 379 0
213 349 352 362 386 400 413 431 444 446 453 0
-425 426 0
-380 381 0
-427 429 0
-156 451 453 0
201 352 362 364 410 413 444 446 453 0
-381 382 0
73 352 362 364 375 386 395 400 413 444 446 451 453 0
-382 384 0
-383 384 0
-384 385 0
-56 386 444 446 0
-181 362 364 444 0
-59 386 431 0
219 344 352 362 364 373 400 413 431 446 460 0
-111 386 444 446 0
-418 419 0
-153 386 395 431 448 0
93 344 352 362 364 397 413 431 444 446 451 0
-386 387 0
-329 387 399 444 0
-387 389 0
267 344 362 364 373 395 413 431 444 446 451 0
-388 389 0
-58 400 453 0
-390 391 0
-392 393 0
-393 394 0
-44 395 446 0
-143 395 400 413 431 0
-149 395 0
-266 395 431 444 451 0
-397 398 0
-409 411 0
-399 402 0
308 346 352 383 388 397 424 439 444 455 0
-131 400 431 444 0
226 344 352 373 386 395 418 444 446 460 0
-398 399 0
130 352 362 373 386 395 400 413 431 444 446 453 0
-308 400 446 451 0
-401 402 0
-404 405 0
-407 408 0
-152 413 431 451 0
-185 413 431 0
-413 414 0
214 344 364 375 403 413 431 444 446 451 455 0
-198 375 444 0
-414 416 0
-417 419 0
-34 364 373 446 453 0
-419 420 0
-420 422 0
-426 427 0
-287 364 386 400 0
-428 429 0
-366 367 0
-430 471 0
340 359 383 392 397 415 436 444 453 0
-431 432 0
-433 434 0
-48 362 386 413 0
-437 438 0
-147 352 444 0
-439 440 0
52 352 362 364 386 403 413 431 444 446 451 453 0
-442 443 0
-443 469 0
-145 446 0
77 346 352 364 375 388 400 424 439 444 446 451 0
-452 458 0
-453 454 0
-455 456 0
327 344 352 362 364 386 397 421 431 455 0
-456 457 0
-457 458 0
-139 362 364 444 452 0
-458 459 0
-460 461 0
-345 347 0
-461 462 0
-463 465 0
-465 466 0
-466 467 0
-467 468 0
-469 470 0
304 344 352 362 364 395 400 413 431 444 446 451 0
122 346 352 364 373 388 395 415 436 444 446 451 453 0
279 349 353 362 373 428 444 446 0
233 349 362 364 428 431 444 460 0
87 344 352 362 373 386 395 400 413 431 451 0
310 344 352 362 364 406 413 431 444 464 0
-357 358 0
-305 344 395 413 0
270 352 362 364 373 388 397 400 431 444 451 453 0
271 352 362 364 373 428 431 451 0
72 476 0
